data/mip_solutions/furman_sahinidis/transportation/7sp-cm1_cplex.log

Log started (V12.6.3.0) Tue Jun  6 16:47:35 2017

New value for default parallel thread count: 1

Problem '/tmp/tmplRF0sK.pyomo.lp' read.
Read time = 0.00 sec. (0.12 ticks)

Problem name         : /tmp/tmplRF0sK.pyomo.lp
Objective sense      : Minimize
Variables            :    1302  [Nneg: 1281,  Binary: 20,  General Integer: 1]
Objective nonzeros   :       1
Linear constraints   :     654  [Less: 20,  Equal: 634]
  Nonzeros           :    4436
  RHS nonzeros       :      22

Variables            : Min LB: 0.000000         Max UB: 1.000000       
Objective nonzeros   : Min   : 1.000000         Max   : 1.000000       
Linear constraints   :
  Nonzeros           : Min   : 1.000000         Max   : 457.6200       
  RHS nonzeros       : Min   : 1.000000         Max   : 665.3880       
Tried aggregator 3 times.
MIP Presolve eliminated 629 rows and 1260 columns.
MIP Presolve added 1 rows and 1 columns.
MIP Presolve modified 3 coefficients.
Aggregator did 6 substitutions.
Reduced MIP has 20 rows, 37 columns, and 102 nonzeros.
Reduced MIP has 7 binaries, 1 generals, 0 SOSs, and 0 indicators.
Presolve time = 0.00 sec. (1.27 ticks)
Found incumbent of value 14.000000 after 0.00 sec. (1.62 ticks)
Probing fixed 0 vars, tightened 1 bounds.
Probing time = 0.00 sec. (0.01 ticks)
Cover probing fixed 0 vars, tightened 1 bounds.
Tried aggregator 1 time.
MIP Presolve eliminated 1 rows and 1 columns.
Reduced MIP has 19 rows, 36 columns, and 97 nonzeros.
Reduced MIP has 6 binaries, 1 generals, 0 SOSs, and 0 indicators.
Presolve time = 0.00 sec. (0.05 ticks)
Probing time = 0.00 sec. (0.00 ticks)
MIP emphasis: balance optimality and feasibility.
MIP search method: dynamic search.
Parallel mode: none, using 1 thread.
Root relaxation solution time = 0.00 sec. (0.04 ticks)

        Nodes                                         Cuts/
   Node  Left     Objective  IInf  Best Integer    Best Bound    ItCnt     Gap

*     0+    0                           14.0000        9.0000            35.71%
      0     0        9.4298     3       14.0000        9.4298        7   32.64%
*     0+    0                           10.0000        9.4298             5.70%
      0     0        cutoff             10.0000        9.4298        7    5.70%
Elapsed time = 0.00 sec. (1.83 ticks, tree = 0.01 MB, solutions = 2)

Root node processing (before b&c):
  Real time             =    0.00 sec. (1.87 ticks)
Sequential b&c:
  Real time             =    0.00 sec. (0.00 ticks)
                          ------------
Total (root+branch&cut) =    0.00 sec. (1.87 ticks)

Solution pool: 2 solutions saved.

MIP - Integer optimal solution:  Objective =  1.0000000000e+01
Solution time =    0.00 sec.  Iterations = 7  Nodes = 0
Deterministic time = 1.87 ticks  (545.89 ticks/sec)


Incumbent solution written to file '/tmp/tmpwpOeKN.cplex.sol'.

Log started (V12.6.3.0) Mon Jul 24 16:46:05 2017

New value for default parallel thread count: 1

Problem '/tmp/tmpOtq6u8.pyomo.lp' read.
Read time = 0.00 sec. (0.12 ticks)

Problem name         : /tmp/tmpOtq6u8.pyomo.lp
Objective sense      : Minimize
Variables            :    1302  [Nneg: 1281,  Binary: 20,  General Integer: 1]
Objective nonzeros   :       1
Linear constraints   :     654  [Less: 20,  Equal: 634]
  Nonzeros           :    4436
  RHS nonzeros       :      22

Variables            : Min LB: 0.000000         Max UB: 1.000000       
Objective nonzeros   : Min   : 1.000000         Max   : 1.000000       
Linear constraints   :
  Nonzeros           : Min   : 1.000000         Max   : 457.6200       
  RHS nonzeros       : Min   : 1.000000         Max   : 665.3880       
Tried aggregator 3 times.
MIP Presolve eliminated 629 rows and 1260 columns.
MIP Presolve added 1 rows and 1 columns.
MIP Presolve modified 3 coefficients.
Aggregator did 6 substitutions.
Reduced MIP has 20 rows, 37 columns, and 102 nonzeros.
Reduced MIP has 7 binaries, 1 generals, 0 SOSs, and 0 indicators.
Presolve time = 0.00 sec. (1.27 ticks)
Found incumbent of value 14.000000 after 0.00 sec. (1.62 ticks)
Probing fixed 0 vars, tightened 1 bounds.
Probing time = 0.00 sec. (0.01 ticks)
Cover probing fixed 0 vars, tightened 1 bounds.
Tried aggregator 1 time.
MIP Presolve eliminated 1 rows and 1 columns.
Reduced MIP has 19 rows, 36 columns, and 97 nonzeros.
Reduced MIP has 6 binaries, 1 generals, 0 SOSs, and 0 indicators.
Presolve time = 0.00 sec. (0.05 ticks)
Probing time = 0.00 sec. (0.00 ticks)
MIP emphasis: balance optimality and feasibility.
MIP search method: dynamic search.
Parallel mode: none, using 1 thread.
Root relaxation solution time = 0.00 sec. (0.04 ticks)

        Nodes                                         Cuts/
   Node  Left     Objective  IInf  Best Integer    Best Bound    ItCnt     Gap

*     0+    0                           14.0000        9.0000            35.71%
      0     0        9.4298     3       14.0000        9.4298        7   32.64%
*     0+    0                           10.0000        9.4298             5.70%
      0     0        cutoff             10.0000        9.4298        7    5.70%
Elapsed time = 0.00 sec. (1.83 ticks, tree = 0.01 MB, solutions = 2)

Root node processing (before b&c):
  Real time             =    0.00 sec. (1.87 ticks)
Sequential b&c:
  Real time             =    0.00 sec. (0.00 ticks)
                          ------------
Total (root+branch&cut) =    0.00 sec. (1.87 ticks)

Solution pool: 2 solutions saved.

MIP - Integer optimal solution:  Objective =  1.0000000000e+01
Solution time =    0.00 sec.  Iterations = 7  Nodes = 0
Deterministic time = 1.87 ticks  (624.69 ticks/sec)


Incumbent solution written to file '/tmp/tmpYglAAd.cplex.sol'.

Log started (V12.6.3.0) Mon Jul 24 16:58:59 2017

New value for default parallel thread count: 1

Problem '/tmp/tmp2botdd.pyomo.lp' read.
Read time = 0.00 sec. (0.12 ticks)

Problem name         : /tmp/tmp2botdd.pyomo.lp
Objective sense      : Minimize
Variables            :    1302  [Nneg: 1281,  Binary: 20,  General Integer: 1]
Objective nonzeros   :       1
Linear constraints   :     654  [Less: 20,  Equal: 634]
  Nonzeros           :    4436
  RHS nonzeros       :      22

Variables            : Min LB: 0.000000         Max UB: 1.000000       
Objective nonzeros   : Min   : 1.000000         Max   : 1.000000       
Linear constraints   :
  Nonzeros           : Min   : 1.000000         Max   : 457.6200       
  RHS nonzeros       : Min   : 1.000000         Max   : 665.3880       
Tried aggregator 3 times.
MIP Presolve eliminated 629 rows and 1260 columns.
MIP Presolve added 1 rows and 1 columns.
MIP Presolve modified 3 coefficients.
Aggregator did 6 substitutions.
Reduced MIP has 20 rows, 37 columns, and 102 nonzeros.
Reduced MIP has 7 binaries, 1 generals, 0 SOSs, and 0 indicators.
Presolve time = 0.00 sec. (1.27 ticks)
Found incumbent of value 14.000000 after 0.00 sec. (1.62 ticks)
Probing fixed 0 vars, tightened 1 bounds.
Probing time = 0.00 sec. (0.01 ticks)
Cover probing fixed 0 vars, tightened 1 bounds.
Tried aggregator 1 time.
MIP Presolve eliminated 1 rows and 1 columns.
Reduced MIP has 19 rows, 36 columns, and 97 nonzeros.
Reduced MIP has 6 binaries, 1 generals, 0 SOSs, and 0 indicators.
Presolve time = 0.00 sec. (0.05 ticks)
Probing time = 0.00 sec. (0.00 ticks)
MIP emphasis: balance optimality and feasibility.
MIP search method: dynamic search.
Parallel mode: none, using 1 thread.
Root relaxation solution time = 0.00 sec. (0.04 ticks)

        Nodes                                         Cuts/
   Node  Left     Objective  IInf  Best Integer    Best Bound    ItCnt     Gap

*     0+    0                           14.0000        9.0000            35.71%
      0     0        9.4298     3       14.0000        9.4298        7   32.64%
*     0+    0                           10.0000        9.4298             5.70%
      0     0        cutoff             10.0000        9.4298        7    5.70%
Elapsed time = 0.00 sec. (1.83 ticks, tree = 0.01 MB, solutions = 2)

Root node processing (before b&c):
  Real time             =    0.00 sec. (1.87 ticks)
Sequential b&c:
  Real time             =    0.00 sec. (0.00 ticks)
                          ------------
Total (root+branch&cut) =    0.00 sec. (1.87 ticks)

Solution pool: 2 solutions saved.

MIP - Integer optimal solution:  Objective =  1.0000000000e+01
Solution time =    0.00 sec.  Iterations = 7  Nodes = 0
Deterministic time = 1.87 ticks  (646.25 ticks/sec)


Incumbent solution written to file '/tmp/tmpBc7SkH.cplex.sol'.

Log started (V12.6.3.0) Wed Jul 26 16:03:17 2017

New value for default parallel thread count: 1

Problem '/tmp/tmpj3Xwz6.pyomo.lp' read.
Read time = 0.00 sec. (0.12 ticks)

Problem name         : /tmp/tmpj3Xwz6.pyomo.lp
Objective sense      : Minimize
Variables            :    1302  [Nneg: 1281,  Binary: 20,  General Integer: 1]
Objective nonzeros   :       1
Linear constraints   :     654  [Less: 20,  Equal: 634]
  Nonzeros           :    4436
  RHS nonzeros       :      22

Variables            : Min LB: 0.000000         Max UB: 1.000000       
Objective nonzeros   : Min   : 1.000000         Max   : 1.000000       
Linear constraints   :
  Nonzeros           : Min   : 1.000000         Max   : 457.6200       
  RHS nonzeros       : Min   : 1.000000         Max   : 665.3880       
Tried aggregator 3 times.
MIP Presolve eliminated 629 rows and 1260 columns.
MIP Presolve added 1 rows and 1 columns.
MIP Presolve modified 3 coefficients.
Aggregator did 6 substitutions.
Reduced MIP has 20 rows, 37 columns, and 102 nonzeros.
Reduced MIP has 7 binaries, 1 generals, 0 SOSs, and 0 indicators.
Presolve time = 0.00 sec. (1.27 ticks)
Found incumbent of value 14.000000 after 0.00 sec. (1.62 ticks)
Probing fixed 0 vars, tightened 1 bounds.
Probing time = 0.00 sec. (0.01 ticks)
Cover probing fixed 0 vars, tightened 1 bounds.
Tried aggregator 1 time.
MIP Presolve eliminated 1 rows and 1 columns.
Reduced MIP has 19 rows, 36 columns, and 97 nonzeros.
Reduced MIP has 6 binaries, 1 generals, 0 SOSs, and 0 indicators.
Presolve time = 0.00 sec. (0.05 ticks)
Probing time = 0.00 sec. (0.00 ticks)
MIP emphasis: balance optimality and feasibility.
MIP search method: dynamic search.
Parallel mode: none, using 1 thread.
Root relaxation solution time = 0.00 sec. (0.04 ticks)

        Nodes                                         Cuts/
   Node  Left     Objective  IInf  Best Integer    Best Bound    ItCnt     Gap

*     0+    0                           14.0000        9.0000            35.71%
      0     0        9.4298     3       14.0000        9.4298        7   32.64%
*     0+    0                           10.0000        9.4298             5.70%
      0     0        cutoff             10.0000        9.4298        7    5.70%
Elapsed time = 0.00 sec. (1.83 ticks, tree = 0.01 MB, solutions = 2)

Root node processing (before b&c):
  Real time             =    0.00 sec. (1.87 ticks)
Sequential b&c:
  Real time             =    0.00 sec. (0.00 ticks)
                          ------------
Total (root+branch&cut) =    0.00 sec. (1.87 ticks)

Solution pool: 2 solutions saved.

MIP - Integer optimal solution:  Objective =  1.0000000000e+01
Solution time =    0.00 sec.  Iterations = 7  Nodes = 0
Deterministic time = 1.87 ticks  (667.83 ticks/sec)


Incumbent solution written to file '/tmp/tmpLocmOz.cplex.sol'.
